W=5;
H=4;

MAX_TIME=15;
MAX_TRACKS=15;

TARGET=(1,5);

TRAINS=[(2,5,LEFT),(4,1,TOP)];

INIT_POS=[
(1,3,STRAIGHT_RL),
(1,4,STRAIGHT_RL),
(1,5,STRAIGHT_RL),
(2,3,STRAIGHT_RL),
(2,5,STRAIGHT_RL),
(3,3,STRAIGHT_RL),
(4,1,STRAIGHT_TD),
];
TUNNEL_PAIRS=[];

GATES=[
(1,3,2,false),
(1,4,1,true),
];
ACTIVATIONS=[
(2,3,2),
(3,3,1),
];

DSWITCHES=[];

STATIONS=[];
